
        $ From http://www.csplib.org/Problems/prob009/data/helmut.pdf
        $ Problem number 56
        $ Sequence length : 25
        language ESSENCE' 1.0
        letting sizemaster be 252
        letting sizes be sequence(4,7,10,11,12,13,23,25,29,31,32,34,36,37,38,40,42,44,62,67,68,71,77,108,113)
        